max: +x11+x12+x13+x14+x15+x16+x17+x21+x22+x23+x24+x25+x26+x27+x31+x32+x33+x34+x35+x36+x37+x41+x42+x43+x44+x45+x46+x47+x51+x52+x53+x54+x55+x56+x57+x61+x62+x63+x64+x65+x66+x67+x71+x72+x73+x74+x75+x76+x77;
+x23+x32-1x11 >= 0;
+x31+x24+x33-1x12 >= 0;
+x32+x21+x25+x34-1x13 >= 0;
+x33+x22+x26+x35-1x14 >= 0;
+x34+x23+x27+x36-1x15 >= 0;
+x35+x24+x37-1x16 >= 0;
+x36+x25-1x17 >= 0;
+x13+x33+x42-1x21 >= 0;
+x14+x41+x34+x43-1x22 >= 0;
+x11+x15+x42+x31+x35+x44-1x23 >= 0;
+x12+x16+x43+x32+x36+x45-1x24 >= 0;
+x13+x17+x44+x33+x37+x46-1x25 >= 0;
+x14+x45+x34+x47-1x26 >= 0;
+x15+x46+x35-1x27 >= 0;
+x23+x12+x43+x52-1x31 >= 0;
+x11+x24+x51+x13+x44+x53-1x32 >= 0;
+x21+x12+x25+x52+x41+x14+x45+x54-1x33 >= 0;
+x22+x13+x26+x53+x42+x15+x46+x55-1x34 >= 0;
+x23+x14+x27+x54+x43+x16+x47+x56-1x35 >= 0;
+x24+x15+x55+x44+x17+x57-1x36 >= 0;
+x25+x16+x56+x45-1x37 >= 0;
+x33+x22+x53+x62-1x41 >= 0;
+x21+x34+x61+x23+x54+x63-1x42 >= 0;
+x31+x22+x35+x62+x51+x24+x55+x64-1x43 >= 0;
+x32+x23+x36+x63+x52+x25+x56+x65-1x44 >= 0;
+x33+x24+x37+x64+x53+x26+x57+x66-1x45 >= 0;
+x34+x25+x65+x54+x27+x67-1x46 >= 0;
+x35+x26+x66+x55-1x47 >= 0;
+x43+x32+x63+x72-1x51 >= 0;
+x31+x44+x71+x33+x64+x73-1x52 >= 0;
+x41+x32+x45+x72+x61+x34+x65+x74-1x53 >= 0;
+x42+x33+x46+x73+x62+x35+x66+x75-1x54 >= 0;
+x43+x34+x47+x74+x63+x36+x67+x76-1x55 >= 0;
+x44+x35+x75+x64+x37+x77-1x56 >= 0;
+x45+x36+x76+x65-1x57 >= 0;
+x53+x42+x73-1x61 >= 0;
+x41+x54+x43+x74-1x62 >= 0;
+x51+x42+x55+x71+x44+x75-1x63 >= 0;
+x52+x43+x56+x72+x45+x76-1x64 >= 0;
+x53+x44+x57+x73+x46+x77-1x65 >= 0;
+x54+x45+x74+x47-1x66 >= 0;
+x55+x46+x75-1x67 >= 0;
+x63+x52-1x71 >= 0;
+x51+x64+x53-1x72 >= 0;
+x61+x52+x65+x54-1x73 >= 0;
+x62+x53+x66+x55-1x74 >= 0;
+x63+x54+x67+x56-1x75 >= 0;
+x64+x55+x57-1x76 >= 0;
+x65+x56-1x77 >= 0;
+x23+x32+7x11 <= 8;
+x31+x24+x33+7x12 <= 8;
+x32+x21+x25+x34+7x13 <= 8;
+x33+x22+x26+x35+7x14 <= 8;
+x34+x23+x27+x36+7x15 <= 8;
+x35+x24+x37+7x16 <= 8;
+x36+x25+7x17 <= 8;
+x13+x33+x42+7x21 <= 8;
+x14+x41+x34+x43+7x22 <= 8;
+x11+x15+x42+x31+x35+x44+7x23 <= 8;
+x12+x16+x43+x32+x36+x45+7x24 <= 8;
+x13+x17+x44+x33+x37+x46+7x25 <= 8;
+x14+x45+x34+x47+7x26 <= 8;
+x15+x46+x35+7x27 <= 8;
+x23+x12+x43+x52+7x31 <= 8;
+x11+x24+x51+x13+x44+x53+7x32 <= 8;
+x21+x12+x25+x52+x41+x14+x45+x54+7x33 <= 8;
+x22+x13+x26+x53+x42+x15+x46+x55+7x34 <= 8;
+x23+x14+x27+x54+x43+x16+x47+x56+7x35 <= 8;
+x24+x15+x55+x44+x17+x57+7x36 <= 8;
+x25+x16+x56+x45+7x37 <= 8;
+x33+x22+x53+x62+7x41 <= 8;
+x21+x34+x61+x23+x54+x63+7x42 <= 8;
+x31+x22+x35+x62+x51+x24+x55+x64+7x43 <= 8;
+x32+x23+x36+x63+x52+x25+x56+x65+7x44 <= 8;
+x33+x24+x37+x64+x53+x26+x57+x66+7x45 <= 8;
+x34+x25+x65+x54+x27+x67+7x46 <= 8;
+x35+x26+x66+x55+7x47 <= 8;
+x43+x32+x63+x72+7x51 <= 8;
+x31+x44+x71+x33+x64+x73+7x52 <= 8;
+x41+x32+x45+x72+x61+x34+x65+x74+7x53 <= 8;
+x42+x33+x46+x73+x62+x35+x66+x75+7x54 <= 8;
+x43+x34+x47+x74+x63+x36+x67+x76+7x55 <= 8;
+x44+x35+x75+x64+x37+x77+7x56 <= 8;
+x45+x36+x76+x65+7x57 <= 8;
+x53+x42+x73+7x61 <= 8;
+x41+x54+x43+x74+7x62 <= 8;
+x51+x42+x55+x71+x44+x75+7x63 <= 8;
+x52+x43+x56+x72+x45+x76+7x64 <= 8;
+x53+x44+x57+x73+x46+x77+7x65 <= 8;
+x54+x45+x74+x47+7x66 <= 8;
+x55+x46+x75+7x67 <= 8;
+x63+x52+7x71 <= 8;
+x51+x64+x53+7x72 <= 8;
+x61+x52+x65+x54+7x73 <= 8;
+x62+x53+x66+x55+7x74 <= 8;
+x63+x54+x67+x56+7x75 <= 8;
+x64+x55+x57+7x76 <= 8;
+x65+x56+7x77 <= 8;
bin x11,x12,x13,x14,x15,x16,x17,x21,x22,x23,x24,x25,x26,x27,x31,x32,x33,x34,x35,x36,x37,x41,x42,x43,x44,x45,x46,x47,x51,x52,x53,x54,x55,x56,x57,x61,x62,x63,x64,x65,x66,x67,x71,x72,x73,x74,x75,x76,x77;